p cnf 200 1110
-101 -96 0
-101 -67 0
-101 8 0
-101 -99 0
-101 69 0
-101 -26 0
-101 -20 0
-101 39 0
-101 -14 0
-101 31 0
101 96 67 -8 99 -69 26 20 -39 14 -31 0
-102 -83 0
-102 58 0
-102 37 0
-102 -100 0
-102 -2 0
-102 8 0
-102 -51 0
-102 -29 0
-102 -89 0
-102 61 0
102 83 -58 -37 100 2 -8 51 29 89 -61 0
-103 84 0
-103 56 0
-103 73 0
-103 19 0
-103 25 0
-103 -62 0
-103 14 0
-103 11 0
-103 -71 0
-103 89 0
103 -84 -56 -73 -19 -25 62 -14 -11 71 -89 0
-104 -44 0
-104 -25 0
-104 3 0
-104 89 0
-104 -93 0
-104 -35 0
-104 -17 0
-104 21 0
-104 -4 0
-104 27 0
104 44 25 -3 -89 93 35 17 -21 4 -27 0
-105 -35 0
-105 64 0
-105 -34 0
-105 86 0
-105 -89 0
-105 14 0
-105 -24 0
-105 1 0
-105 67 0
-105 42 0
105 35 -64 34 -86 89 -14 24 -1 -67 -42 0
-106 5 0
-106 49 0
-106 -76 0
-106 36 0
-106 -27 0
-106 40 0
-106 -48 0
-106 10 0
-106 67 0
-106 68 0
106 -5 -49 76 -36 27 -40 48 -10 -67 -68 0
-107 -31 0
-107 80 0
-107 -64 0
-107 84 0
-107 62 0
-107 -97 0
-107 -53 0
-107 -18 0
-107 50 0
-107 -89 0
107 31 -80 64 -84 -62 97 53 18 -50 89 0
-108 -83 0
-108 -6 0
-108 -8 0
-108 -59 0
-108 42 0
-108 -75 0
-108 45 0
-108 -69 0
-108 -77 0
-108 -14 0
108 83 6 8 59 -42 75 -45 69 77 14 0
-109 -89 0
-109 -57 0
-109 45 0
-109 -80 0
-109 38 0
-109 96 0
-109 76 0
-109 16 0
-109 -11 0
-109 59 0
109 89 57 -45 80 -38 -96 -76 -16 11 -59 0
-110 59 0
-110 -40 0
-110 27 0
-110 88 0
-110 26 0
-110 -35 0
-110 69 0
-110 -99 0
-110 32 0
-110 42 0
110 -59 40 -27 -88 -26 35 -69 99 -32 -42 0
101 102 103 104 105 106 107 108 109 110 0
-111 70 0
-111 -50 0
-111 12 0
-111 -90 0
-111 -76 0
-111 -36 0
-111 -19 0
-111 -53 0
-111 -46 0
-111 -41 0
111 -70 50 -12 90 76 36 19 53 46 41 0
-112 -26 0
-112 64 0
-112 75 0
-112 -55 0
-112 72 0
-112 62 0
-112 76 0
-112 -97 0
-112 -18 0
-112 -9 0
112 26 -64 -75 55 -72 -62 -76 97 18 9 0
-113 -22 0
-113 -70 0
-113 -46 0
-113 -72 0
-113 -71 0
-113 32 0
-113 -89 0
-113 33 0
-113 -66 0
-113 10 0
113 22 70 46 72 71 -32 89 -33 66 -10 0
-114 -46 0
-114 -10 0
-114 -21 0
-114 -96 0
-114 94 0
-114 65 0
-114 76 0
-114 9 0
-114 -99 0
-114 82 0
114 46 10 21 96 -94 -65 -76 -9 99 -82 0
-115 -13 0
-115 -19 0
-115 59 0
-115 -82 0
-115 -52 0
-115 33 0
-115 100 0
-115 11 0
-115 -29 0
-115 -86 0
115 13 19 -59 82 52 -33 -100 -11 29 86 0
-116 63 0
-116 -24 0
-116 79 0
-116 36 0
-116 99 0
-116 83 0
-116 -76 0
-116 21 0
-116 20 0
-116 -2 0
116 -63 24 -79 -36 -99 -83 76 -21 -20 2 0
-117 -96 0
-117 98 0
-117 -83 0
-117 29 0
-117 65 0
-117 75 0
-117 -2 0
-117 60 0
-117 5 0
-117 -100 0
117 96 -98 83 -29 -65 -75 2 -60 -5 100 0
-118 57 0
-118 79 0
-118 -73 0
-118 -7 0
-118 -34 0
-118 -71 0
-118 -78 0
-118 -25 0
-118 -38 0
-118 -20 0
118 -57 -79 73 7 34 71 78 25 38 20 0
-119 -91 0
-119 -36 0
-119 71 0
-119 38 0
-119 -24 0
-119 27 0
-119 3 0
-119 86 0
-119 34 0
-119 47 0
119 91 36 -71 -38 24 -27 -3 -86 -34 -47 0
-120 51 0
-120 -64 0
-120 -58 0
-120 94 0
-120 70 0
-120 -79 0
-120 37 0
-120 68 0
-120 85 0
-120 90 0
120 -51 64 58 -94 -70 79 -37 -68 -85 -90 0
111 112 113 114 115 116 117 118 119 120 0
-121 4 0
-121 -20 0
-121 -73 0
-121 61 0
-121 -22 0
-121 -21 0
-121 16 0
-121 99 0
-121 13 0
-121 -26 0
121 -4 20 73 -61 22 21 -16 -99 -13 26 0
-122 -4 0
-122 -69 0
-122 -80 0
-122 100 0
-122 67 0
-122 89 0
-122 57 0
-122 24 0
-122 58 0
-122 71 0
122 4 69 80 -100 -67 -89 -57 -24 -58 -71 0
-123 80 0
-123 79 0
-123 -62 0
-123 76 0
-123 -15 0
-123 -55 0
-123 -11 0
-123 34 0
-123 -10 0
-123 -48 0
123 -80 -79 62 -76 15 55 11 -34 10 48 0
-124 -21 0
-124 -36 0
-124 -65 0
-124 -6 0
-124 -47 0
-124 -5 0
-124 -30 0
-124 -75 0
-124 -98 0
-124 -38 0
124 21 36 65 6 47 5 30 75 98 38 0
-125 -82 0
-125 11 0
-125 61 0
-125 31 0
-125 76 0
-125 6 0
-125 88 0
-125 44 0
-125 -35 0
-125 34 0
125 82 -11 -61 -31 -76 -6 -88 -44 35 -34 0
-126 -98 0
-126 -61 0
-126 -2 0
-126 -80 0
-126 56 0
-126 71 0
-126 68 0
-126 93 0
-126 -49 0
-126 -74 0
126 98 61 2 80 -56 -71 -68 -93 49 74 0
-127 -92 0
-127 -34 0
-127 -10 0
-127 -39 0
-127 31 0
-127 -93 0
-127 13 0
-127 53 0
-127 -18 0
-127 -75 0
127 92 34 10 39 -31 93 -13 -53 18 75 0
-128 -27 0
-128 17 0
-128 -51 0
-128 -22 0
-128 88 0
-128 -52 0
-128 -24 0
-128 99 0
-128 47 0
-128 34 0
128 27 -17 51 22 -88 52 24 -99 -47 -34 0
-129 -17 0
-129 59 0
-129 -64 0
-129 -58 0
-129 -53 0
-129 14 0
-129 -60 0
-129 22 0
-129 -21 0
-129 -29 0
129 17 -59 64 58 53 -14 60 -22 21 29 0
-130 33 0
-130 -9 0
-130 -62 0
-130 65 0
-130 -8 0
-130 -32 0
-130 54 0
-130 -2 0
-130 -25 0
-130 -20 0
130 -33 9 62 -65 8 32 -54 2 25 20 0
121 122 123 124 125 126 127 128 129 130 0
-131 96 0
-131 -30 0
-131 -1 0
-131 79 0
-131 76 0
-131 19 0
-131 -63 0
-131 10 0
-131 -40 0
-131 55 0
131 -96 30 1 -79 -76 -19 63 -10 40 -55 0
-132 51 0
-132 7 0
-132 -36 0
-132 -50 0
-132 -39 0
-132 -82 0
-132 99 0
-132 22 0
-132 93 0
-132 -73 0
132 -51 -7 36 50 39 82 -99 -22 -93 73 0
-133 27 0
-133 -52 0
-133 -15 0
-133 42 0
-133 -66 0
-133 87 0
-133 16 0
-133 -67 0
-133 -33 0
-133 81 0
133 -27 52 15 -42 66 -87 -16 67 33 -81 0
-134 35 0
-134 96 0
-134 38 0
-134 91 0
-134 -24 0
-134 69 0
-134 99 0
-134 11 0
-134 -56 0
-134 43 0
134 -35 -96 -38 -91 24 -69 -99 -11 56 -43 0
-135 19 0
-135 -69 0
-135 89 0
-135 -37 0
-135 45 0
-135 -13 0
-135 -60 0
-135 -64 0
-135 93 0
-135 84 0
135 -19 69 -89 37 -45 13 60 64 -93 -84 0
-136 -9 0
-136 69 0
-136 8 0
-136 76 0
-136 48 0
-136 3 0
-136 -81 0
-136 -10 0
-136 -83 0
-136 11 0
136 9 -69 -8 -76 -48 -3 81 10 83 -11 0
-137 81 0
-137 -79 0
-137 8 0
-137 -50 0
-137 88 0
-137 -69 0
-137 -5 0
-137 95 0
-137 -62 0
-137 -65 0
137 -81 79 -8 50 -88 69 5 -95 62 65 0
-138 31 0
-138 4 0
-138 78 0
-138 -13 0
-138 94 0
-138 7 0
-138 -63 0
-138 93 0
-138 -69 0
-138 -62 0
138 -31 -4 -78 13 -94 -7 63 -93 69 62 0
-139 -79 0
-139 75 0
-139 51 0
-139 -80 0
-139 -62 0
-139 48 0
-139 -18 0
-139 100 0
-139 85 0
-139 -39 0
139 79 -75 -51 80 62 -48 18 -100 -85 39 0
-140 93 0
-140 55 0
-140 -65 0
-140 -90 0
-140 -3 0
-140 95 0
-140 62 0
-140 -74 0
-140 -72 0
-140 73 0
140 -93 -55 65 90 3 -95 -62 74 72 -73 0
131 132 133 134 135 136 137 138 139 140 0
-141 -6 0
-141 -28 0
-141 65 0
-141 81 0
-141 69 0
-141 -42 0
-141 19 0
-141 33 0
-141 9 0
-141 74 0
141 6 28 -65 -81 -69 42 -19 -33 -9 -74 0
-142 35 0
-142 -16 0
-142 -89 0
-142 -82 0
-142 -81 0
-142 -14 0
-142 -79 0
-142 -61 0
-142 29 0
-142 84 0
142 -35 16 89 82 81 14 79 61 -29 -84 0
-143 58 0
-143 99 0
-143 79 0
-143 41 0
-143 30 0
-143 91 0
-143 -14 0
-143 -22 0
-143 -31 0
-143 80 0
143 -58 -99 -79 -41 -30 -91 14 22 31 -80 0
-144 7 0
-144 -43 0
-144 -47 0
-144 -14 0
-144 74 0
-144 -21 0
-144 -95 0
-144 -4 0
-144 57 0
-144 83 0
144 -7 43 47 14 -74 21 95 4 -57 -83 0
-145 -79 0
-145 81 0
-145 -54 0
-145 3 0
-145 -16 0
-145 49 0
-145 43 0
-145 -20 0
-145 -95 0
-145 -15 0
145 79 -81 54 -3 16 -49 -43 20 95 15 0
-146 49 0
-146 -43 0
-146 17 0
-146 -97 0
-146 62 0
-146 40 0
-146 -14 0
-146 -77 0
-146 -45 0
-146 44 0
146 -49 43 -17 97 -62 -40 14 77 45 -44 0
-147 -88 0
-147 76 0
-147 99 0
-147 -38 0
-147 74 0
-147 -51 0
-147 85 0
-147 96 0
-147 35 0
-147 55 0
147 88 -76 -99 38 -74 51 -85 -96 -35 -55 0
-148 78 0
-148 49 0
-148 -42 0
-148 -14 0
-148 -100 0
-148 61 0
-148 -73 0
-148 29 0
-148 -48 0
-148 -6 0
148 -78 -49 42 14 100 -61 73 -29 48 6 0
-149 28 0
-149 -46 0
-149 -19 0
-149 -43 0
-149 -21 0
-149 -37 0
-149 73 0
-149 -44 0
-149 79 0
-149 -100 0
149 -28 46 19 43 21 37 -73 44 -79 100 0
-150 -38 0
-150 -82 0
-150 -20 0
-150 61 0
-150 41 0
-150 -66 0
-150 25 0
-150 -16 0
-150 -31 0
-150 39 0
150 38 82 20 -61 -41 66 -25 16 31 -39 0
141 142 143 144 145 146 147 148 149 150 0
-151 87 0
-151 -49 0
-151 -71 0
-151 11 0
-151 -20 0
-151 -57 0
-151 -92 0
-151 -75 0
-151 69 0
-151 -93 0
151 -87 49 71 -11 20 57 92 75 -69 93 0
-152 66 0
-152 -76 0
-152 -16 0
-152 9 0
-152 77 0
-152 -79 0
-152 41 0
-152 31 0
-152 -70 0
-152 -37 0
152 -66 76 16 -9 -77 79 -41 -31 70 37 0
-153 46 0
-153 82 0
-153 15 0
-153 -77 0
-153 -43 0
-153 47 0
-153 -29 0
-153 84 0
-153 96 0
-153 11 0
153 -46 -82 -15 77 43 -47 29 -84 -96 -11 0
-154 -67 0
-154 62 0
-154 27 0
-154 88 0
-154 -50 0
-154 44 0
-154 -9 0
-154 75 0
-154 -53 0
-154 -93 0
154 67 -62 -27 -88 50 -44 9 -75 53 93 0
-155 22 0
-155 73 0
-155 72 0
-155 91 0
-155 -3 0
-155 8 0
-155 82 0
-155 -6 0
-155 -64 0
-155 -25 0
155 -22 -73 -72 -91 3 -8 -82 6 64 25 0
-156 64 0
-156 -57 0
-156 -92 0
-156 45 0
-156 38 0
-156 89 0
-156 98 0
-156 -69 0
-156 74 0
-156 31 0
156 -64 57 92 -45 -38 -89 -98 69 -74 -31 0
-157 59 0
-157 -100 0
-157 66 0
-157 -6 0
-157 -37 0
-157 -29 0
-157 -96 0
-157 -72 0
-157 -75 0
-157 -27 0
157 -59 100 -66 6 37 29 96 72 75 27 0
-158 49 0
-158 -100 0
-158 27 0
-158 -43 0
-158 48 0
-158 -91 0
-158 34 0
-158 -54 0
-158 2 0
-158 -56 0
158 -49 100 -27 43 -48 91 -34 54 -2 56 0
-159 -100 0
-159 -85 0
-159 54 0
-159 1 0
-159 -11 0
-159 -14 0
-159 71 0
-159 -17 0
-159 -98 0
-159 -97 0
159 100 85 -54 -1 11 14 -71 17 98 97 0
-160 -54 0
-160 50 0
-160 63 0
-160 18 0
-160 31 0
-160 26 0
-160 -38 0
-160 -36 0
-160 -17 0
-160 -88 0
160 54 -50 -63 -18 -31 -26 38 36 17 88 0
151 152 153 154 155 156 157 158 159 160 0
-161 -34 0
-161 51 0
-161 12 0
-161 69 0
-161 -65 0
-161 -40 0
-161 -42 0
-161 94 0
-161 -33 0
-161 -72 0
161 34 -51 -12 -69 65 40 42 -94 33 72 0
-162 26 0
-162 -63 0
-162 75 0
-162 41 0
-162 -19 0
-162 -36 0
-162 87 0
-162 -96 0
-162 -77 0
-162 -14 0
162 -26 63 -75 -41 19 36 -87 96 77 14 0
-163 -75 0
-163 61 0
-163 -16 0
-163 -28 0
-163 14 0
-163 15 0
-163 -69 0
-163 64 0
-163 96 0
-163 26 0
163 75 -61 16 28 -14 -15 69 -64 -96 -26 0
-164 82 0
-164 -85 0
-164 10 0
-164 -32 0
-164 84 0
-164 41 0
-164 -60 0
-164 -23 0
-164 -50 0
-164 -6 0
164 -82 85 -10 32 -84 -41 60 23 50 6 0
-165 -85 0
-165 -66 0
-165 -100 0
-165 22 0
-165 71 0
-165 73 0
-165 -42 0
-165 -84 0
-165 -33 0
-165 20 0
165 85 66 100 -22 -71 -73 42 84 33 -20 0
-166 -44 0
-166 -25 0
-166 50 0
-166 68 0
-166 -62 0
-166 18 0
-166 13 0
-166 -75 0
-166 -3 0
-166 -83 0
166 44 25 -50 -68 62 -18 -13 75 3 83 0
-167 100 0
-167 -75 0
-167 -35 0
-167 67 0
-167 -47 0
-167 87 0
-167 -58 0
-167 24 0
-167 40 0
-167 43 0
167 -100 75 35 -67 47 -87 58 -24 -40 -43 0
-168 52 0
-168 57 0
-168 -90 0
-168 86 0
-168 49 0
-168 -16 0
-168 56 0
-168 -31 0
-168 -100 0
-168 55 0
168 -52 -57 90 -86 -49 16 -56 31 100 -55 0
-169 -64 0
-169 -70 0
-169 -98 0
-169 -20 0
-169 -46 0
-169 -57 0
-169 -29 0
-169 19 0
-169 44 0
-169 -77 0
169 64 70 98 20 46 57 29 -19 -44 77 0
-170 27 0
-170 9 0
-170 89 0
-170 61 0
-170 78 0
-170 12 0
-170 -21 0
-170 -80 0
-170 19 0
-170 87 0
170 -27 -9 -89 -61 -78 -12 21 80 -19 -87 0
161 162 163 164 165 166 167 168 169 170 0
-171 88 0
-171 26 0
-171 -12 0
-171 61 0
-171 81 0
-171 -28 0
-171 -66 0
-171 85 0
-171 34 0
-171 73 0
171 -88 -26 12 -61 -81 28 66 -85 -34 -73 0
-172 -75 0
-172 91 0
-172 23 0
-172 -89 0
-172 -64 0
-172 -44 0
-172 94 0
-172 62 0
-172 83 0
-172 -31 0
172 75 -91 -23 89 64 44 -94 -62 -83 31 0
-173 -83 0
-173 -25 0
-173 18 0
-173 22 0
-173 40 0
-173 61 0
-173 20 0
-173 -72 0
-173 80 0
-173 -24 0
173 83 25 -18 -22 -40 -61 -20 72 -80 24 0
-174 -64 0
-174 -66 0
-174 -57 0
-174 -71 0
-174 -2 0
-174 -56 0
-174 99 0
-174 100 0
-174 95 0
-174 98 0
174 64 66 57 71 2 56 -99 -100 -95 -98 0
-175 -68 0
-175 -55 0
-175 1 0
-175 -97 0
-175 -96 0
-175 35 0
-175 -70 0
-175 30 0
-175 92 0
-175 -72 0
175 68 55 -1 97 96 -35 70 -30 -92 72 0
-176 -11 0
-176 -67 0
-176 61 0
-176 17 0
-176 87 0
-176 -27 0
-176 59 0
-176 -80 0
-176 -47 0
-176 16 0
176 11 67 -61 -17 -87 27 -59 80 47 -16 0
-177 -83 0
-177 -18 0
-177 57 0
-177 84 0
-177 71 0
-177 21 0
-177 -51 0
-177 46 0
-177 -39 0
-177 -70 0
177 83 18 -57 -84 -71 -21 51 -46 39 70 0
-178 54 0
-178 7 0
-178 -24 0
-178 23 0
-178 90 0
-178 -35 0
-178 22 0
-178 100 0
-178 -10 0
-178 -31 0
178 -54 -7 24 -23 -90 35 -22 -100 10 31 0
-179 -55 0
-179 11 0
-179 82 0
-179 23 0
-179 26 0
-179 17 0
-179 46 0
-179 51 0
-179 -71 0
-179 -28 0
179 55 -11 -82 -23 -26 -17 -46 -51 71 28 0
-180 -85 0
-180 79 0
-180 -87 0
-180 57 0
-180 -48 0
-180 -53 0
-180 -46 0
-180 89 0
-180 7 0
-180 -75 0
180 85 -79 87 -57 48 53 46 -89 -7 75 0
171 172 173 174 175 176 177 178 179 180 0
-181 65 0
-181 -58 0
-181 75 0
-181 17 0
-181 14 0
-181 71 0
-181 -98 0
-181 -25 0
-181 10 0
-181 83 0
181 -65 58 -75 -17 -14 -71 98 25 -10 -83 0
-182 98 0
-182 72 0
-182 53 0
-182 -88 0
-182 65 0
-182 39 0
-182 -97 0
-182 16 0
-182 31 0
-182 -14 0
182 -98 -72 -53 88 -65 -39 97 -16 -31 14 0
-183 71 0
-183 -23 0
-183 -11 0
-183 26 0
-183 -47 0
-183 51 0
-183 -4 0
-183 -39 0
-183 -70 0
-183 -72 0
183 -71 23 11 -26 47 -51 4 39 70 72 0
-184 -20 0
-184 96 0
-184 17 0
-184 -58 0
-184 41 0
-184 -7 0
-184 -1 0
-184 56 0
-184 -64 0
-184 -48 0
184 20 -96 -17 58 -41 7 1 -56 64 48 0
-185 -7 0
-185 88 0
-185 -99 0
-185 18 0
-185 2 0
-185 -92 0
-185 68 0
-185 47 0
-185 -61 0
-185 21 0
185 7 -88 99 -18 -2 92 -68 -47 61 -21 0
-186 -14 0
-186 66 0
-186 72 0
-186 -95 0
-186 -8 0
-186 5 0
-186 88 0
-186 77 0
-186 -23 0
-186 98 0
186 14 -66 -72 95 8 -5 -88 -77 23 -98 0
-187 54 0
-187 -19 0
-187 30 0
-187 68 0
-187 70 0
-187 -71 0
-187 -45 0
-187 -1 0
-187 -81 0
-187 -15 0
187 -54 19 -30 -68 -70 71 45 1 81 15 0
-188 57 0
-188 26 0
-188 -44 0
-188 -31 0
-188 -27 0
-188 68 0
-188 48 0
-188 -89 0
-188 -6 0
-188 98 0
188 -57 -26 44 31 27 -68 -48 89 6 -98 0
-189 -54 0
-189 55 0
-189 -71 0
-189 22 0
-189 -62 0
-189 -76 0
-189 -9 0
-189 -19 0
-189 2 0
-189 52 0
189 54 -55 71 -22 62 76 9 19 -2 -52 0
-190 -36 0
-190 -30 0
-190 54 0
-190 51 0
-190 35 0
-190 -67 0
-190 11 0
-190 -58 0
-190 -16 0
-190 70 0
190 36 30 -54 -51 -35 67 -11 58 16 -70 0
181 182 183 184 185 186 187 188 189 190 0
-191 -36 0
-191 100 0
-191 28 0
-191 -27 0
-191 -19 0
-191 64 0
-191 -61 0
-191 -94 0
-191 -39 0
-191 -67 0
191 36 -100 -28 27 19 -64 61 94 39 67 0
-192 42 0
-192 -32 0
-192 60 0
-192 -84 0
-192 -14 0
-192 -92 0
-192 -11 0
-192 54 0
-192 -97 0
-192 8 0
192 -42 32 -60 84 14 92 11 -54 97 -8 0
-193 26 0
-193 -5 0
-193 -50 0
-193 -43 0
-193 20 0
-193 40 0
-193 66 0
-193 -42 0
-193 3 0
-193 -17 0
193 -26 5 50 43 -20 -40 -66 42 -3 17 0
-194 77 0
-194 -5 0
-194 52 0
-194 58 0
-194 86 0
-194 -57 0
-194 79 0
-194 36 0
-194 -96 0
-194 1 0
194 -77 5 -52 -58 -86 57 -79 -36 96 -1 0
-195 -53 0
-195 51 0
-195 37 0
-195 46 0
-195 -91 0
-195 55 0
-195 10 0
-195 -49 0
-195 -57 0
-195 -70 0
195 53 -51 -37 -46 91 -55 -10 49 57 70 0
-196 66 0
-196 42 0
-196 -58 0
-196 -57 0
-196 -14 0
-196 -40 0
-196 -4 0
-196 30 0
-196 100 0
-196 -85 0
196 -66 -42 58 57 14 40 4 -30 -100 85 0
-197 -86 0
-197 -89 0
-197 99 0
-197 -100 0
-197 -36 0
-197 -25 0
-197 -6 0
-197 -14 0
-197 71 0
-197 92 0
197 86 89 -99 100 36 25 6 14 -71 -92 0
-198 -62 0
-198 36 0
-198 99 0
-198 68 0
-198 86 0
-198 -53 0
-198 10 0
-198 -51 0
-198 82 0
-198 78 0
198 62 -36 -99 -68 -86 53 -10 51 -82 -78 0
-199 -56 0
-199 -64 0
-199 30 0
-199 47 0
-199 -14 0
-199 -2 0
-199 89 0
-199 72 0
-199 -5 0
-199 10 0
199 56 64 -30 -47 14 2 -89 -72 5 -10 0
-200 -61 0
-200 -83 0
-200 34 0
-200 -62 0
-200 -91 0
-200 90 0
-200 93 0
-200 49 0
-200 -29 0
-200 60 0
200 61 83 -34 62 91 -90 -93 -49 29 -60 0
191 192 193 194 195 196 197 198 199 200 0
